; Options: -in -smt2
(set-option :produce-unsat-assumptions true)

(declare-fun start!2933 () Bool)

(assert start!2933)

(declare-fun b_free!31 () Bool)

(declare-fun b_next!31 () Bool)

(assert (=> start!2933 (= b_free!31 (not b_next!31))))

(declare-fun tp!47 () Bool)

(declare-fun b_and!183 () Bool)

(assert (=> start!2933 (= tp!47 b_and!183)))

(declare-fun res!12702 () Bool)

(declare-fun e!9046 () Bool)

(assert (=> start!2933 (=> (not res!12702) (not e!9046))))

(declare-datatypes ((array!1367 0))(
  ( (array!1368 (arr!602 (Array (_ BitVec 32) (_ BitVec 32))) (size!602 (_ BitVec 32))) )
))
(declare-fun a!13 () array!1367)

(assert (=> start!2933 (= res!12702 (= (size!602 a!13) #b00000000000000000000000000010100))))

(assert (=> start!2933 e!9046))

(declare-fun array_inv!550 (array!1367) Bool)

(assert (=> start!2933 (array_inv!550 a!13)))

(assert (=> start!2933 tp!47))

(declare-fun b!16114 () Bool)

(declare-fun res!12711 () Bool)

(assert (=> b!16114 (=> (not res!12711) (not e!9046))))

(declare-fun P!6 () Int)

(declare-fun dynLambda!53 (Int (_ BitVec 32)) Bool)

(assert (=> b!16114 (= res!12711 (dynLambda!53 P!6 (select (arr!602 a!13) #b00000000000000000000000000000001)))))

(declare-fun b!16115 () Bool)

(declare-fun res!12713 () Bool)

(assert (=> b!16115 (=> (not res!12713) (not e!9046))))

(assert (=> b!16115 (= res!12713 (dynLambda!53 P!6 (select (arr!602 a!13) #b00000000000000000000000000000000)))))

(declare-fun b!16116 () Bool)

(declare-fun res!12707 () Bool)

(assert (=> b!16116 (=> (not res!12707) (not e!9046))))

(assert (=> b!16116 (= res!12707 (dynLambda!53 P!6 (select (arr!602 a!13) #b00000000000000000000000000000011)))))

(declare-fun b!16117 () Bool)

(declare-fun res!12706 () Bool)

(assert (=> b!16117 (=> (not res!12706) (not e!9046))))

(assert (=> b!16117 (= res!12706 (dynLambda!53 P!6 (select (arr!602 a!13) #b00000000000000000000000000000111)))))

(declare-fun b!16118 () Bool)

(declare-fun res!12710 () Bool)

(assert (=> b!16118 (=> (not res!12710) (not e!9046))))

(assert (=> b!16118 (= res!12710 (dynLambda!53 P!6 (select (arr!602 a!13) #b00000000000000000000000000000010)))))

(declare-fun b!16119 () Bool)

(declare-fun res!12709 () Bool)

(assert (=> b!16119 (=> (not res!12709) (not e!9046))))

(assert (=> b!16119 (= res!12709 (dynLambda!53 P!6 (select (arr!602 a!13) #b00000000000000000000000000001010)))))

(declare-fun b!16120 () Bool)

(declare-fun res!12708 () Bool)

(assert (=> b!16120 (=> (not res!12708) (not e!9046))))

(assert (=> b!16120 (= res!12708 (dynLambda!53 P!6 (select (arr!602 a!13) #b00000000000000000000000000001000)))))

(declare-fun b!16121 () Bool)

(declare-fun res!12704 () Bool)

(assert (=> b!16121 (=> (not res!12704) (not e!9046))))

(assert (=> b!16121 (= res!12704 (dynLambda!53 P!6 (select (arr!602 a!13) #b00000000000000000000000000001001)))))

(declare-fun b!16122 () Bool)

(declare-fun res!12703 () Bool)

(assert (=> b!16122 (=> (not res!12703) (not e!9046))))

(assert (=> b!16122 (= res!12703 (dynLambda!53 P!6 (select (arr!602 a!13) #b00000000000000000000000000001011)))))

(declare-fun b!16123 () Bool)

(declare-fun res!12705 () Bool)

(assert (=> b!16123 (=> (not res!12705) (not e!9046))))

(assert (=> b!16123 (= res!12705 (dynLambda!53 P!6 (select (arr!602 a!13) #b00000000000000000000000000000110)))))

(declare-fun b!16124 () Bool)

(declare-fun res!12714 () Bool)

(assert (=> b!16124 (=> (not res!12714) (not e!9046))))

(assert (=> b!16124 (= res!12714 (dynLambda!53 P!6 (select (arr!602 a!13) #b00000000000000000000000000000100)))))

(declare-fun b!16125 () Bool)

(assert (=> b!16125 (= e!9046 (bvsge #b00000000000000000000000000001100 (size!602 a!13)))))

(declare-fun b!16126 () Bool)

(declare-fun res!12712 () Bool)

(assert (=> b!16126 (=> (not res!12712) (not e!9046))))

(assert (=> b!16126 (= res!12712 (dynLambda!53 P!6 (select (arr!602 a!13) #b00000000000000000000000000000101)))))

(assert (= (and start!2933 res!12702) b!16115))

(assert (= (and b!16115 res!12713) b!16114))

(assert (= (and b!16114 res!12711) b!16118))

(assert (= (and b!16118 res!12710) b!16116))

(assert (= (and b!16116 res!12707) b!16124))

(assert (= (and b!16124 res!12714) b!16126))

(assert (= (and b!16126 res!12712) b!16123))

(assert (= (and b!16123 res!12705) b!16117))

(assert (= (and b!16117 res!12706) b!16120))

(assert (= (and b!16120 res!12708) b!16121))

(assert (= (and b!16121 res!12704) b!16119))

(assert (= (and b!16119 res!12709) b!16122))

(assert (= (and b!16122 res!12703) b!16125))

(declare-fun b_lambda!5453 () Bool)

(assert (=> (not b_lambda!5453) (not b!16121)))

(declare-fun t!343 () Bool)

(declare-fun tb!153 () Bool)

(assert (=> (and start!2933 (= P!6 P!6) t!343) tb!153))

(declare-fun result!153 () Bool)

(assert (=> tb!153 (= result!153 true)))

(assert (=> b!16121 t!343))

(declare-fun b_and!185 () Bool)

(assert (= b_and!183 (and (=> t!343 result!153) b_and!185)))

(declare-fun b_lambda!5455 () Bool)

(assert (=> (not b_lambda!5455) (not b!16120)))

(declare-fun t!345 () Bool)

(declare-fun tb!155 () Bool)

(assert (=> (and start!2933 (= P!6 P!6) t!345) tb!155))

(declare-fun result!155 () Bool)

(assert (=> tb!155 (= result!155 true)))

(assert (=> b!16120 t!345))

(declare-fun b_and!187 () Bool)

(assert (= b_and!185 (and (=> t!345 result!155) b_and!187)))

(declare-fun b_lambda!5457 () Bool)

(assert (=> (not b_lambda!5457) (not b!16114)))

(declare-fun t!347 () Bool)

(declare-fun tb!157 () Bool)

(assert (=> (and start!2933 (= P!6 P!6) t!347) tb!157))

(declare-fun result!157 () Bool)

(assert (=> tb!157 (= result!157 true)))

(assert (=> b!16114 t!347))

(declare-fun b_and!189 () Bool)

(assert (= b_and!187 (and (=> t!347 result!157) b_and!189)))

(declare-fun b_lambda!5459 () Bool)

(assert (=> (not b_lambda!5459) (not b!16122)))

(declare-fun t!349 () Bool)

(declare-fun tb!159 () Bool)

(assert (=> (and start!2933 (= P!6 P!6) t!349) tb!159))

(declare-fun result!159 () Bool)

(assert (=> tb!159 (= result!159 true)))

(assert (=> b!16122 t!349))

(declare-fun b_and!191 () Bool)

(assert (= b_and!189 (and (=> t!349 result!159) b_and!191)))

(declare-fun b_lambda!5461 () Bool)

(assert (=> (not b_lambda!5461) (not b!16119)))

(declare-fun t!351 () Bool)

(declare-fun tb!161 () Bool)

(assert (=> (and start!2933 (= P!6 P!6) t!351) tb!161))

(declare-fun result!161 () Bool)

(assert (=> tb!161 (= result!161 true)))

(assert (=> b!16119 t!351))

(declare-fun b_and!193 () Bool)

(assert (= b_and!191 (and (=> t!351 result!161) b_and!193)))

(declare-fun b_lambda!5463 () Bool)

(assert (=> (not b_lambda!5463) (not b!16116)))

(declare-fun t!353 () Bool)

(declare-fun tb!163 () Bool)

(assert (=> (and start!2933 (= P!6 P!6) t!353) tb!163))

(declare-fun result!163 () Bool)

(assert (=> tb!163 (= result!163 true)))

(assert (=> b!16116 t!353))

(declare-fun b_and!195 () Bool)

(assert (= b_and!193 (and (=> t!353 result!163) b_and!195)))

(declare-fun b_lambda!5465 () Bool)

(assert (=> (not b_lambda!5465) (not b!16123)))

(declare-fun t!355 () Bool)

(declare-fun tb!165 () Bool)

(assert (=> (and start!2933 (= P!6 P!6) t!355) tb!165))

(declare-fun result!165 () Bool)

(assert (=> tb!165 (= result!165 true)))

(assert (=> b!16123 t!355))

(declare-fun b_and!197 () Bool)

(assert (= b_and!195 (and (=> t!355 result!165) b_and!197)))

(declare-fun b_lambda!5467 () Bool)

(assert (=> (not b_lambda!5467) (not b!16124)))

(declare-fun t!357 () Bool)

(declare-fun tb!167 () Bool)

(assert (=> (and start!2933 (= P!6 P!6) t!357) tb!167))

(declare-fun result!167 () Bool)

(assert (=> tb!167 (= result!167 true)))

(assert (=> b!16124 t!357))

(declare-fun b_and!199 () Bool)

(assert (= b_and!197 (and (=> t!357 result!167) b_and!199)))

(declare-fun b_lambda!5469 () Bool)

(assert (=> (not b_lambda!5469) (not b!16126)))

(declare-fun t!359 () Bool)

(declare-fun tb!169 () Bool)

(assert (=> (and start!2933 (= P!6 P!6) t!359) tb!169))

(declare-fun result!169 () Bool)

(assert (=> tb!169 (= result!169 true)))

(assert (=> b!16126 t!359))

(declare-fun b_and!201 () Bool)

(assert (= b_and!199 (and (=> t!359 result!169) b_and!201)))

(declare-fun b_lambda!5471 () Bool)

(assert (=> (not b_lambda!5471) (not b!16117)))

(declare-fun t!361 () Bool)

(declare-fun tb!171 () Bool)

(assert (=> (and start!2933 (= P!6 P!6) t!361) tb!171))

(declare-fun result!171 () Bool)

(assert (=> tb!171 (= result!171 true)))

(assert (=> b!16117 t!361))

(declare-fun b_and!203 () Bool)

(assert (= b_and!201 (and (=> t!361 result!171) b_and!203)))

(declare-fun b_lambda!5473 () Bool)

(assert (=> (not b_lambda!5473) (not b!16115)))

(declare-fun t!363 () Bool)

(declare-fun tb!173 () Bool)

(assert (=> (and start!2933 (= P!6 P!6) t!363) tb!173))

(declare-fun result!173 () Bool)

(assert (=> tb!173 (= result!173 true)))

(assert (=> b!16115 t!363))

(declare-fun b_and!205 () Bool)

(assert (= b_and!203 (and (=> t!363 result!173) b_and!205)))

(declare-fun b_lambda!5475 () Bool)

(assert (=> (not b_lambda!5475) (not b!16118)))

(declare-fun t!365 () Bool)

(declare-fun tb!175 () Bool)

(assert (=> (and start!2933 (= P!6 P!6) t!365) tb!175))

(declare-fun result!175 () Bool)

(assert (=> tb!175 (= result!175 true)))

(assert (=> b!16118 t!365))

(declare-fun b_and!207 () Bool)

(assert (= b_and!205 (and (=> t!365 result!175) b_and!207)))

(declare-fun m!22483 () Bool)

(assert (=> start!2933 m!22483))

(declare-fun m!22485 () Bool)

(assert (=> b!16126 m!22485))

(assert (=> b!16126 m!22485))

(declare-fun m!22487 () Bool)

(assert (=> b!16126 m!22487))

(declare-fun m!22489 () Bool)

(assert (=> b!16119 m!22489))

(assert (=> b!16119 m!22489))

(declare-fun m!22491 () Bool)

(assert (=> b!16119 m!22491))

(declare-fun m!22493 () Bool)

(assert (=> b!16121 m!22493))

(assert (=> b!16121 m!22493))

(declare-fun m!22495 () Bool)

(assert (=> b!16121 m!22495))

(declare-fun m!22497 () Bool)

(assert (=> b!16120 m!22497))

(assert (=> b!16120 m!22497))

(declare-fun m!22499 () Bool)

(assert (=> b!16120 m!22499))

(declare-fun m!22501 () Bool)

(assert (=> b!16115 m!22501))

(assert (=> b!16115 m!22501))

(declare-fun m!22503 () Bool)

(assert (=> b!16115 m!22503))

(declare-fun m!22505 () Bool)

(assert (=> b!16122 m!22505))

(assert (=> b!16122 m!22505))

(declare-fun m!22507 () Bool)

(assert (=> b!16122 m!22507))

(declare-fun m!22509 () Bool)

(assert (=> b!16118 m!22509))

(assert (=> b!16118 m!22509))

(declare-fun m!22511 () Bool)

(assert (=> b!16118 m!22511))

(declare-fun m!22513 () Bool)

(assert (=> b!16116 m!22513))

(assert (=> b!16116 m!22513))

(declare-fun m!22515 () Bool)

(assert (=> b!16116 m!22515))

(declare-fun m!22517 () Bool)

(assert (=> b!16123 m!22517))

(assert (=> b!16123 m!22517))

(declare-fun m!22519 () Bool)

(assert (=> b!16123 m!22519))

(declare-fun m!22521 () Bool)

(assert (=> b!16114 m!22521))

(assert (=> b!16114 m!22521))

(declare-fun m!22523 () Bool)

(assert (=> b!16114 m!22523))

(declare-fun m!22525 () Bool)

(assert (=> b!16124 m!22525))

(assert (=> b!16124 m!22525))

(declare-fun m!22527 () Bool)

(assert (=> b!16124 m!22527))

(declare-fun m!22529 () Bool)

(assert (=> b!16117 m!22529))

(assert (=> b!16117 m!22529))

(declare-fun m!22531 () Bool)

(assert (=> b!16117 m!22531))

(check-sat (not b_lambda!5453) (not b_lambda!5467) (not b_lambda!5459) (not b_lambda!5461) b_and!207 (not b_lambda!5469) (not b_lambda!5473) (not b_lambda!5475) (not b_lambda!5463) (not b_lambda!5455) (not start!2933) (not b_next!31) (not b_lambda!5471) (not b_lambda!5457) (not b_lambda!5465))
(check-sat b_and!207 (not b_next!31))
